4 
5  11 33 53 
6  07 14 22 29 37 45 51 
7  00 07 15 21 27 35 42 50 57 
8  05 12 20 27 35 42 50 57 
9  05 12 20 27 35 42 50 57 
10  05 12 20 27 35 42 50 57 
11  05 12 20 27 35 42 50 57 
12  05 12 20 27 35 42 50 57 
13  05 12 21 28 36 43 51 58 
14  06 13 21 28 36 43 51 58 
15  06 13 21 27 36 43 51 58 
16  06 13 21 27 36 43 51 58 
17  06 13 21 28 36 43 51 58 
18  06 13 21 28 36 43 51 59 
19  06 13 20 27 35 42 50 57 
20  05 12 20 27 37 52 
21  07 22 37 52 
22  07 22 34 47 
23  02 17 
0 
